POINTS = {"LK1","LK2","LK3","LK4","LK5","LK6","LK7","LK8","LK9","LK10","LK11","LK12","LK13","LK14","LK15","LK16","LK17","LK18","LK19","LK20","LK21","LK22","LK23","LK24","LK25","LK26","LK27","LK28","LK29","BT1","BT2","BT3","BT4","CC-HH1","CC-HH2"};
STATIONS = {"CC-TM1","CC-HH1","CC-TT1","CC-TM2","CC-TM3","CC-BDX","CC-HH2","CC-TLC"};
TYPES = {"xe_may","oto5","oto7","taxi5","taxi7","bus"};
alpha = 0.00036;
beta  = 0.00215;
w1 = 0.335570469799;
w2 = 0.332214765101;
w3 = 0.332214765101;
idxBDX = 6;
idxBus = 6;
SCF = [0.35, 0.35, 0.35, 0.34, 0.34, 0.44];
areaT = [1.48, 12.5, 13.2, 12.5, 13.2, 40];
powerT = [3.5, 11, 22, 11, 22, 150];
s_lb = [258, 13, 1, 172, 1, 94, 248, 1];
s_ub = [262, 17, 2, 176, 2, 98, 252, 2];
EVcount = [
  35, 5, 2, 0, 0, 0;
  38, 7, 1, 0, 0, 0;
  40, 6, 3, 0, 0, 0;
  41, 5, 2, 0, 0, 0;
  39, 6, 1, 0, 0, 0;
  36, 6, 2, 0, 0, 0;
  34, 7, 3, 0, 0, 0;
  37, 6, 2, 0, 0, 0;
  38, 5, 3, 0, 0, 0;
  36, 6, 2, 0, 0, 0;
  35, 5, 2, 0, 0, 0;
  37, 7, 1, 0, 0, 0;
  39, 6, 3, 0, 0, 0;
  38, 5, 2, 0, 0, 0;
  36, 6, 1, 0, 0, 0;
  37, 5, 3, 0, 0, 0;
  38, 6, 2, 0, 0, 0;
  40, 5, 1, 0, 0, 0;
  39, 6, 2, 0, 0, 0;
  37, 5, 3, 0, 0, 0;
  35, 7, 1, 0, 0, 0;
  36, 6, 3, 0, 0, 0;
  38, 5, 2, 0, 0, 0;
  37, 6, 1, 0, 0, 0;
  39, 5, 3, 0, 0, 0;
  40, 6, 2, 0, 0, 0;
  38, 5, 1, 0, 0, 0;
  36, 6, 2, 0, 0, 0;
  35, 7, 3, 0, 0, 0;
  34, 6, 2, 0, 0, 0;
  36, 5, 3, 0, 0, 0;
  37, 7, 1, 0, 0, 0;
  39, 6, 2, 0, 0, 0;
  120, 40, 20, 82, 82, 0;
  130, 50, 25, 121, 121, 0
];
maxCharger = [
  100, 50, 50, 30, 30, 0;
  100, 50, 50, 30, 30, 0;
  100, 50, 50, 30, 30, 0;
  100, 50, 50, 30, 30, 0;
  100, 50, 50, 30, 30, 0;
  50, 30, 30, 0, 0, 10;
  100, 50, 50, 30, 30, 0;
  80, 40, 40, 20, 20, 0
];
DIST = [
  0.483, 0.229, 0.292, 0.574, 1.117, 1.376, 1.467, 1.202;
  0.585, 0.359, 0.172, 0.642, 0.996, 1.072, 1.178, 1.291;
  0.312, 0.16, 0.132, 0.322, 0.907, 1.098, 1.207, 0.987;
  0.329, 0.186, 0.301, 0.466, 0.972, 1.142, 1.301, 1.186;
  0.204, 0.228, 0.325, 0.459, 1.236, 1.398, 1.438, 0.996;
  0.214, 0.241, 0.207, 0.353, 1.088, 1.294, 1.305, 1.009;
  0.68, 0.633, 0.211, 0.07, 0.733, 0.869, 0.849, 0.521;
  1.002, 0.879, 0.496, 0.434, 0.346, 0.469, 0.484, 0.238;
  1.193, 1.025, 0.706, 0.605, 0.545, 0.644, 0.621, 0.484;
  0.605, 0.423, 0.239, 0.382, 0.629, 0.799, 0.79, 0.578;
  1.111, 0.763, 0.581, 0.371, 0.241, 0.617, 0.917, 0.739;
  0.687, 0.525, 0.328, 0.392, 0.532, 1.007, 1.37, 0.558;
  0.862, 0.613, 0.352, 0.329, 0.599, 1.032, 1.37, 0.772;
  0.858, 0.643, 0.3, 0.342, 0.805, 1.041, 0.844, 0.739;
  0.606, 0.51, 0.312, 0.762, 0.687, 0.844, 1.091, 0.605;
  0.963, 0.728, 0.617, 0.666, 0.931, 0.658, 0.258, 0.819;
  0.903, 0.689, 0.515, 0.542, 0.336, 0.518, 0.617, 0.451;
  1.105, 0.83, 0.615, 0.665, 0.258, 0.627, 0.549, 0.304;
  1.14, 0.951, 0.66, 0.725, 0.15, 0.369, 0.382, 0.43;
  0.981, 0.792, 0.526, 0.543, 0.224, 0.29, 0.503, 0.431;
  1.011, 0.848, 0.525, 0.49, 0.23, 0.417, 0.433, 0.32;
  1.085, 0.945, 0.586, 0.546, 0.279, 0.488, 0.39, 0.314;
  1.089, 0.972, 0.598, 0.466, 0.415, 0.331, 0.409, 0.26;
  1.26, 1.12, 0.705, 0.672, 0.498, 0.495, 0.391, 0.123;
  1.342, 1.299, 0.903, 0.839, 0.382, 0.332, 0.351, 0.115;
  1.436, 1.255, 0.93, 0.73, 0.817, 0.332, 0.101, 0.123;
  1.366, 1.166, 0.886, 0.861, 0.06, 0.374, 0.084, 0.349;
  1.386, 1.19, 0.934, 0.931, 0.095, 0.81, 0.244, 0.283;
  1.228, 1.007, 0.802, 0.832, 0.195, 0.309, 0.484, 0.291;
  0.784, 0.707, 0.408, 0.171, 0.699, 0.689, 0.675, 0.413;
  0.78, 0.707, 0.363, 0.168, 0.695, 0.875, 0.854, 0.475;
  0.98, 0.901, 0.514, 0.41, 0.512, 0.597, 0.522, 0.342;
  0.915, 0.703, 0.517, 0.41, 0.612, 0.529, 0.532, 0.409;
  0.265, 0.205, 0.428, 0.615, 1.175, 1.371, 1.352, 0.152;
  1.674, 1.532, 1.19, 1.095, 0.384, 0.232, 0.532, 1.29
];
